c This is QMaxSAT 2017 based on 14.07
c This is Glucose 3.0
c This is MiniSat 2.2.0
c WARNING: for repeatability, setting FPU to use double precision
c card = mrwto, comp = 0, pmodel = 0, narr = 3, mct = 24, verb = 0
cr firstCPXsol 0 0 0
c top = 81479
c |  Number of variables:    13366                                            |
c |  Number of clauses:      2932230                                          |
c |  Weight of hard clauses: 81479                                            |
c |  Number of soft clauses: 1656                                             |
c |  Number of unit soft clauses: 1656                                        |
c |  Maximum Cardinality (by unit): 244434       (244434      )               |
c last restart ## conflicts  :  136 7400 
o 1563 | cpuTime 0.259798 s
c Sum of weights = 81478
c A number of soft clauses remained = 552
c MRWTO encoding for Pseudo-Boolean Constraints
c sizeMax=1563
c No.0 Divisor=12	generated by pow1
c No.1 Divisor=12	generated by pow1
c No.2 Divisor=12	generated by pow1
c p0= 12	p1= 12	p2= 12	
c number of digits = 4
c linkingVar[0].size = 12, linkingVar[1].size = 12, linkingVar[2].size = 11, linkingVar[3].size = 1, 
c Pseudo-Boolean Constraints: 12172 variables and 117969 clauses
c Sum of weights = 81478
c A number of soft clauses remained = 552
c MRWTO encoding for Pseudo-Boolean Constraints
c sizeMax=1563
c No.0 Divisor=12	generated by pow1
c No.1 Divisor=12	generated by pow1
c No.2 Divisor=12	generated by pow1
c p0= 12	p1= 12	p2= 12	
c number of digits = 4
c linkingVar[0].size = 12, linkingVar[1].size = 12, linkingVar[2].size = 11, linkingVar[3].size = 1, 
c Pseudo-Boolean Constraints: 12172 variables and 117969 clauses
c Sum of weights = 81478
c A number of soft clauses remained = 552
c MRWTO encoding for Pseudo-Boolean Constraints
c sizeMax=1563
c No.0 Divisor=12	generated by pow1
c No.1 Divisor=12	generated by pow1
c No.2 Divisor=12	generated by pow1
c p0= 12	p1= 12	p2= 12	
c number of digits = 4
c linkingVar[0].size = 12, linkingVar[1].size = 12, linkingVar[2].size = 11, linkingVar[3].size = 1, 
c Pseudo-Boolean Constraints: 12172 variables and 117969 clauses
c last restart ## conflicts  :  152 5129 
o 1288 | cpuTime 0.462714 s
c last restart ## conflicts  :  313 4852 
o 1250 | cpuTime 1.00768 s
c last restart ## conflicts  :  188 5017 
o 1077 | cpuTime 1.34481 s
c last restart ## conflicts  :  820 4834 
o 944 | cpuTime 3.02634 s
c last restart ## conflicts  :  217 4964 
o 894 | cpuTime 16.9826 s
c last restart ## conflicts  :  1181 4654 
o 875 | cpuTime 20.2167 s
c last restart ## conflicts  :  774 5811 
o 859 | cpuTime 32.4234 s
c last restart ## conflicts  :  600 4329 
o 840 | cpuTime 305.43 s
c last restart ## conflicts  :  1008 5122 
o 835 | cpuTime 353.131 s
c last restart ## conflicts  :  1385 4097 
o 829 | cpuTime 357.604 s
c last restart ## conflicts  :  467 5336 
o 820 | cpuTime 409.941 s
c last restart ## conflicts  :  401 5956 
o 812 | cpuTime 433.62 s
c last restart ## conflicts  :  813 4788 
o 802 | cpuTime 754.858 s
c last restart ## conflicts  :  958 5517 
o 801 | cpuTime 773.778 s
c last restart ## conflicts  :  1408 4344 
o 800 | cpuTime 862.941 s
c last restart ## conflicts  :  4147 3861 
o 780 | cpuTime 1555.36 s
c last restart ## conflicts  :  295 5680 
o 778 | cpuTime 2296.46 s
c last restart ## conflicts  :  2200 4340 
o 749 | cpuTime 2343.87 s
s UNKNOWN
c Search is stopped by a limit (maybe time-limit)
cr positiVarArr: [ | 8@1(1->8) | 73@1(4->1) | 186@1(8->18) | 230@1(10->14) | 316@1(14->4) | 394@1(17->10) | 425@1(18->17) | 592@2(1->16) | 615@2(2->15) | 646@2(3->22) | 696@2(5->24) | 697@2(6->1) | 819@2(11->3) | 932@2(15->20) | 947@2(16->11) | 1010@2(19->2) | 1037@2(20->5) | 1099@2(22->19) | 1134@2(24->6) | 1164@3(1->12) | 1317@3(7->21) | 1357@3(9->13) | 1423@3(12->7) | 1441@3(13->1) | 1655@3(21->23) | 1689@3(23->9) | ]
cr the 1-th chain: [ 1->8->18->17->10->14->4->1 ] (#non-depot=6) {#cumul.=7}
cr the 2-th chain: [ 1->16->11->3->22->19->2->15->20->5->24->6->1 ] (#non-depot=11) {#cumul.=18}
cr the 3-th chain: [ 1->12->7->21->23->9->13->1 ] (#non-depot=6) {#cumul.=24}
c Latest Answer = 0 by 19 loops
c restarts              : 104322
c conflicts             : 15217101       (4237 /sec)
c decisions             : 75497442       (0.00 % random) (21021 /sec)
c propagations          : 11676872127    (3251272 /sec)
c conflict literals     : 2924094079     (24.29 % deleted)
c Memory used           : 858.00 MB
c CPU time              : 3591.48 s
